peakDumbCharging = 25900; 
Machine = anon_enum(16); 
machineSpeed = [3700,3700,3700,3700,3700,3700,3700,3700,3700,3700,3700,3700,3700,3700,3700,3700]; 
machineLoad = [3700,3700,3700,3700,3700,3700,3700,3700,3700,3700,3700,3700,3700,3700,3700,3700]; 
Car = anon_enum(34); 
demandCar = [4560,6440,10920,36680,4840,3280,15840,6520,20560,14520,15960,15400,8000,8160,3520,7360,6960,8160,24520,14200,4400,13840,12040,12840,7040,4080,4840,18040,6960,13920,16680,4040,3680,2880]; 
arrivalCar = [82,70,70,67,66,65,62,60,60,58,58,58,57,56,55,54,54,52,52,51,50,50,50,49,46,45,43,42,42,42,41,40,39,39]; 
departureCar = [84,73,74,79,68,68,69,63,67,64,64,66,60,59,58,58,59,56,60,57,53,59,55,54,49,48,47,54,45,47,51,44,47,42]; 
